(declare-fun var0 () String)
(assert (RegexIn var0 (RegexConcat (RegexUnion (RegexStar (Str2Reg "ss")) (RegexUnion (Str2Reg "tt") (Str2Reg "u"))) (RegexConcat (RegexPlus (RegexPlus (Str2Reg "r"))) (RegexConcat (RegexUnion (RegexPlus (Str2Reg "ooo")) (RegexUnion (Str2Reg "pp") (Str2Reg "qqq"))) (RegexConcat (RegexStar (RegexStar (Str2Reg "nn"))) (RegexConcat (RegexUnion (RegexPlus (Str2Reg "ll")) (RegexPlus (Str2Reg "mmm"))) (RegexConcat (RegexUnion (RegexUnion (Str2Reg "h") (Str2Reg "iii")) (RegexUnion (Str2Reg "jjj") (Str2Reg "k"))) (RegexConcat (RegexUnion (RegexUnion (Str2Reg "e") (Str2Reg "fff")) (RegexStar (Str2Reg "ggg"))) (RegexConcat (RegexPlus (RegexUnion (Str2Reg "cc") (Str2Reg "d"))) (RegexConcat (RegexPlus (RegexUnion (Str2Reg "aa") (Str2Reg "bb"))) (RegexConcat (RegexUnion (RegexStar (Str2Reg "88")) (RegexStar (Str2Reg "99"))) (RegexConcat (RegexUnion (RegexStar (Str2Reg "55")) (RegexUnion (Str2Reg "6") (Str2Reg "777"))) (RegexConcat (RegexStar (RegexPlus (Str2Reg "4"))) (RegexConcat (RegexStar (RegexPlus (Str2Reg "3"))) (RegexConcat (RegexStar (RegexPlus (Str2Reg "222"))) (RegexConcat (RegexStar (RegexStar (Str2Reg "1"))) (RegexConcat (RegexStar (RegexUnion (Str2Reg "~~") (Str2Reg "000"))) (RegexConcat (RegexStar (RegexStar (Str2Reg "}}}"))) (RegexConcat (RegexUnion (RegexStar (Str2Reg "``")) (RegexUnion (Str2Reg "{") (Str2Reg "|||"))) (RegexConcat (RegexUnion (RegexUnion (Str2Reg "]") (Str2Reg "^")) (RegexStar (Str2Reg "__"))) (RegexConcat (RegexStar (RegexPlus (Str2Reg "\\\\"))) (RegexConcat (RegexPlus (RegexStar (Str2Reg "[[["))) (RegexConcat (RegexUnion (RegexPlus (Str2Reg "??")) (RegexStar (Str2Reg "@@"))) (RegexConcat (RegexPlus (RegexStar (Str2Reg ">"))) (RegexConcat (RegexStar (RegexStar (Str2Reg "=="))) (RegexConcat (RegexUnion (RegexUnion (Str2Reg "///") (Str2Reg ":")) (RegexUnion (Str2Reg ";") (Str2Reg "<<<"))) (RegexConcat (RegexPlus (RegexUnion (Str2Reg "-") (Str2Reg ".."))) (RegexConcat (RegexPlus (RegexUnion (Str2Reg "+++") (Str2Reg ",,"))) (RegexConcat (RegexStar (RegexStar (Str2Reg "**"))) (RegexConcat (RegexStar (RegexUnion (Str2Reg "(((") (Str2Reg ")))"))) (RegexConcat (RegexUnion (RegexUnion (Str2Reg "%%") (Str2Reg "&&")) (RegexStar (Str2Reg "''"))) (RegexConcat (RegexUnion (RegexPlus (Str2Reg "#")) (RegexPlus (Str2Reg "$"))) (RegexConcat (RegexPlus (RegexUnion (Str2Reg "!!!") (Str2Reg "\"\""))) (RegexConcat (RegexUnion (RegexPlus (Str2Reg "XXX")) (RegexUnion (Str2Reg "Y") (Str2Reg "ZZ"))) (RegexConcat (RegexStar (RegexPlus (Str2Reg "WWW"))) (RegexConcat (RegexPlus (RegexStar (Str2Reg "VV"))) (RegexConcat (RegexStar (RegexUnion (Str2Reg "TT") (Str2Reg "UU"))) (RegexConcat (RegexPlus (RegexUnion (Str2Reg "R") (Str2Reg "SSS"))) (RegexConcat (RegexStar (RegexUnion (Str2Reg "PPP") (Str2Reg "QQ"))) (RegexConcat (RegexStar (RegexPlus (Str2Reg "OOO"))) (RegexConcat (RegexUnion (RegexStar (Str2Reg "MM")) (RegexStar (Str2Reg "NN"))) (RegexConcat (RegexStar (RegexUnion (Str2Reg "KK") (Str2Reg "LLL"))) (RegexConcat (RegexStar (RegexPlus (Str2Reg "JJ"))) (RegexConcat (RegexPlus (RegexPlus (Str2Reg "II"))) (RegexConcat (RegexPlus (RegexPlus (Str2Reg "HHH"))) (RegexConcat (RegexStar (RegexPlus (Str2Reg "GGG"))) (RegexConcat (RegexUnion (RegexUnion (Str2Reg "CCC") (Str2Reg "D")) (RegexUnion (Str2Reg "EE") (Str2Reg "FF"))) (RegexConcat (RegexStar (RegexStar (Str2Reg "B"))) (RegexConcat (RegexUnion (RegexStar (Str2Reg "yy")) (RegexUnion (Str2Reg "zzz") (Str2Reg "A"))) (RegexConcat (RegexStar (RegexPlus (Str2Reg "xx"))) (RegexConcat (RegexStar (RegexStar (Str2Reg "w"))) (RegexConcat (RegexPlus (RegexStar (Str2Reg "vv"))) (RegexConcat (RegexStar (RegexStar (Str2Reg "uuu"))) (RegexConcat (RegexStar (RegexPlus (Str2Reg "tt"))) (RegexConcat (RegexStar (RegexPlus (Str2Reg "sss"))) (RegexConcat (RegexUnion (RegexUnion (Str2Reg "pp") (Str2Reg "qq")) (RegexPlus (Str2Reg "rrr"))) (RegexConcat (RegexStar (RegexPlus (Str2Reg "oo"))) (RegexConcat (RegexStar (RegexUnion (Str2Reg "m") (Str2Reg "n"))) (RegexConcat (RegexPlus (RegexStar (Str2Reg "l"))) (RegexConcat (RegexPlus (RegexStar (Str2Reg "kkk"))) (RegexConcat (RegexUnion (RegexUnion (Str2Reg "gg") (Str2Reg "h")) (RegexUnion (Str2Reg "i") (Str2Reg "j"))) (RegexConcat (RegexStar (RegexPlus (Str2Reg "ff"))) (RegexConcat (RegexStar (RegexUnion (Str2Reg "ddd") (Str2Reg "ee"))) (RegexConcat (RegexStar (RegexStar (Str2Reg "c"))) (RegexConcat (RegexPlus (RegexStar (Str2Reg "bb"))) (RegexConcat (RegexUnion (RegexPlus (Str2Reg "999")) (RegexStar (Str2Reg "aaa"))) (RegexConcat (RegexStar (RegexStar (Str2Reg "88"))) (RegexConcat (RegexUnion (RegexUnion (Str2Reg "444") (Str2Reg "5")) (RegexUnion (Str2Reg "6") (Str2Reg "77"))) (RegexConcat (RegexStar (RegexUnion (Str2Reg "2") (Str2Reg "333"))) (RegexConcat (RegexUnion (RegexStar (Str2Reg "~~~")) (RegexUnion (Str2Reg "00") (Str2Reg "1"))) (RegexConcat (RegexUnion (RegexUnion (Str2Reg "{{{") (Str2Reg "|||")) (RegexStar (Str2Reg "}}}"))) (RegexConcat (RegexStar (RegexStar (Str2Reg "```"))) (RegexConcat (RegexUnion (RegexStar (Str2Reg "^")) (RegexStar (Str2Reg "___"))) (RegexConcat (RegexPlus (RegexStar (Str2Reg "]"))) (RegexConcat (RegexStar (RegexPlus (Str2Reg "\\\\\\"))) (RegexConcat (RegexStar (RegexUnion (Str2Reg "@") (Str2Reg "[[["))) (RegexConcat (RegexPlus (RegexUnion (Str2Reg ">>") (Str2Reg "???"))) (RegexConcat (RegexStar (RegexPlus (Str2Reg "="))) (RegexConcat (RegexStar (RegexPlus (Str2Reg "<<<"))) (RegexConcat (RegexStar (RegexStar (Str2Reg ";"))) (RegexConcat (RegexPlus (RegexUnion (Str2Reg "/") (Str2Reg ":"))) (RegexConcat (RegexPlus (RegexStar (Str2Reg "."))) (RegexConcat (RegexUnion (RegexPlus (Str2Reg "++")) (RegexUnion (Str2Reg ",") (Str2Reg "--"))) (RegexConcat (RegexStar (RegexUnion (Str2Reg ")))") (Str2Reg "*"))) (RegexConcat (RegexPlus (RegexUnion (Str2Reg "'''") (Str2Reg "("))) (RegexConcat (RegexStar (RegexUnion (Str2Reg "%%%") (Str2Reg "&&&"))) (RegexConcat (RegexUnion (RegexPlus (Str2Reg "###")) (RegexPlus (Str2Reg "$"))) (RegexConcat (RegexUnion (RegexPlus (Str2Reg "!")) (RegexStar (Str2Reg "\"\"\""))) (RegexConcat (RegexPlus (RegexUnion (Str2Reg "Y") (Str2Reg "ZZ"))) (RegexConcat (RegexUnion (RegexPlus (Str2Reg "W")) (RegexPlus (Str2Reg "XX"))) (RegexConcat (RegexPlus (RegexStar (Str2Reg "VV"))) (RegexConcat (RegexStar (RegexUnion (Str2Reg "T") (Str2Reg "UUU"))) (RegexConcat (RegexPlus (RegexPlus (Str2Reg "SS"))) (RegexConcat (RegexUnion (RegexUnion (Str2Reg "OO") (Str2Reg "PPP")) (RegexUnion (Str2Reg "QQQ") (Str2Reg "RRR"))) (RegexConcat (RegexUnion (RegexStar (Str2Reg "L")) (RegexUnion (Str2Reg "MMM") (Str2Reg "NN"))) (RegexConcat (RegexPlus (RegexStar (Str2Reg "KK"))) (RegexConcat (RegexUnion (RegexPlus (Str2Reg "HH")) (RegexUnion (Str2Reg "III") (Str2Reg "JJ"))) (RegexConcat (RegexPlus (RegexUnion (Str2Reg "FF") (Str2Reg "GGG"))) (RegexConcat (RegexPlus (RegexPlus (Str2Reg "E"))) (RegexConcat (RegexStar (RegexPlus (Str2Reg "D"))) (RegexConcat (RegexStar (RegexStar (Str2Reg "CCC"))) (RegexConcat (RegexUnion (RegexStar (Str2Reg "AA")) (RegexStar (Str2Reg "B"))) (RegexConcat (RegexStar (RegexUnion (Str2Reg "yyy") (Str2Reg "zz"))) (RegexConcat (RegexUnion (RegexUnion (Str2Reg "uuu") (Str2Reg "vvv")) (RegexUnion (Str2Reg "www") (Str2Reg "x"))) (RegexConcat (RegexStar (RegexStar (Str2Reg "ttt"))) (RegexConcat (RegexUnion (RegexPlus (Str2Reg "r")) (RegexStar (Str2Reg "ss"))) (RegexConcat (RegexPlus (RegexStar (Str2Reg "q"))) (RegexConcat (RegexStar (RegexPlus (Str2Reg "pp"))) (RegexConcat (RegexStar (RegexPlus (Str2Reg "o"))) (RegexConcat (RegexUnion (RegexStar (Str2Reg "m")) (RegexStar (Str2Reg "nn"))) (RegexConcat (RegexUnion (RegexPlus (Str2Reg "k")) (RegexStar (Str2Reg "ll"))) (RegexConcat (RegexUnion (RegexPlus (Str2Reg "h")) (RegexUnion (Str2Reg "i") (Str2Reg "jj"))) (RegexConcat (RegexUnion (RegexUnion (Str2Reg "e") (Str2Reg "ff")) (RegexStar (Str2Reg "gg"))) (RegexConcat (RegexPlus (RegexUnion (Str2Reg "c") (Str2Reg "ddd"))) (RegexConcat (RegexPlus (RegexUnion (Str2Reg "aaa") (Str2Reg "bb"))) (RegexConcat (RegexUnion (RegexStar (Str2Reg "8")) (RegexStar (Str2Reg "99"))) (RegexConcat (RegexUnion (RegexPlus (Str2Reg "5")) (RegexUnion (Str2Reg "666") (Str2Reg "777"))) (RegexConcat (RegexUnion (RegexUnion (Str2Reg "22") (Str2Reg "3")) (RegexStar (Str2Reg "444"))) (RegexConcat (RegexPlus (RegexPlus (Str2Reg "11"))) (RegexConcat (RegexUnion (RegexUnion (Str2Reg "}}}") (Str2Reg "~")) (RegexPlus (Str2Reg "0"))) (RegexConcat (RegexUnion (RegexStar (Str2Reg "{")) (RegexStar (Str2Reg "||"))) (RegexConcat (RegexUnion (RegexStar (Str2Reg "__")) (RegexStar (Str2Reg "```"))) (RegexConcat (RegexUnion (RegexStar (Str2Reg "]]")) (RegexPlus (Str2Reg "^^^"))) (RegexConcat (RegexUnion (RegexUnion (Str2Reg "@") (Str2Reg "[[")) (RegexStar (Str2Reg "\\\\"))) (RegexConcat (RegexPlus (RegexUnion (Str2Reg ">>>") (Str2Reg "???"))) (RegexConcat (RegexPlus (RegexPlus (Str2Reg "="))) (RegexConcat (RegexStar (RegexStar (Str2Reg "<<"))) (RegexConcat (RegexUnion (RegexPlus (Str2Reg ":")) (RegexPlus (Str2Reg ";"))) (RegexConcat (RegexStar (RegexPlus (Str2Reg "/"))) (RegexConcat (RegexPlus (RegexPlus (Str2Reg "..."))) (RegexConcat (RegexStar (RegexUnion (Str2Reg ",,,") (Str2Reg "-"))) (RegexConcat (RegexUnion (RegexUnion (Str2Reg "))") (Str2Reg "***")) (RegexPlus (Str2Reg "+"))) (RegexConcat (RegexUnion (RegexUnion (Str2Reg "%%") (Str2Reg "&")) (RegexUnion (Str2Reg "''") (Str2Reg "("))) (RegexConcat (RegexPlus (RegexUnion (Str2Reg "##") (Str2Reg "$$$"))) (RegexConcat (RegexUnion (RegexUnion (Str2Reg "Y") (Str2Reg "Z")) (RegexUnion (Str2Reg "!!") (Str2Reg "\""))) (RegexConcat (RegexPlus (RegexStar (Str2Reg "XXX"))) (RegexConcat (RegexPlus (RegexStar (Str2Reg "WWW"))) (RegexConcat (RegexPlus (RegexPlus (Str2Reg "V"))) (RegexConcat (RegexStar (RegexStar (Str2Reg "U"))) (RegexConcat (RegexUnion (RegexStar (Str2Reg "SS")) (RegexPlus (Str2Reg "T"))) (RegexConcat (RegexUnion (RegexUnion (Str2Reg "P") (Str2Reg "QQ")) (RegexPlus (Str2Reg "RRR"))) (RegexConcat (RegexStar (RegexStar (Str2Reg "OOO"))) (RegexConcat (RegexPlus (RegexPlus (Str2Reg "NNN"))) (RegexConcat (RegexStar (RegexUnion (Str2Reg "LL") (Str2Reg "MM"))) (RegexConcat (RegexStar (RegexStar (Str2Reg "KKK"))) (RegexConcat (RegexStar (RegexUnion (Str2Reg "I") (Str2Reg "J"))) (RegexConcat (RegexStar (RegexPlus (Str2Reg "H"))) (RegexConcat (RegexPlus (RegexPlus (Str2Reg "G"))) (RegexConcat (RegexStar (RegexPlus (Str2Reg "FFF"))) (RegexConcat (RegexPlus (RegexUnion (Str2Reg "DDD") (Str2Reg "EEE"))) (RegexConcat (RegexPlus (RegexUnion (Str2Reg "B") (Str2Reg "CC"))) (RegexConcat (RegexPlus (RegexPlus (Str2Reg "A"))) (RegexConcat (RegexUnion (RegexUnion (Str2Reg "w") (Str2Reg "xxx")) (RegexUnion (Str2Reg "yyy") (Str2Reg "z"))) (RegexConcat (RegexPlus (RegexPlus (Str2Reg "vvv"))) (RegexConcat (RegexUnion (RegexUnion (Str2Reg "sss") (Str2Reg "t")) (RegexStar (Str2Reg "uuu"))) (RegexConcat (RegexStar (RegexStar (Str2Reg "rrr"))) (RegexConcat (RegexUnion (RegexStar (Str2Reg "oo")) (RegexUnion (Str2Reg "p") (Str2Reg "qq"))) (RegexConcat (RegexUnion (RegexUnion (Str2Reg "lll") (Str2Reg "mm")) (RegexStar (Str2Reg "n"))) (RegexConcat (RegexStar (RegexUnion (Str2Reg "jjj") (Str2Reg "kk"))) (RegexConcat (RegexUnion (RegexUnion (Str2Reg "f") (Str2Reg "ggg")) (RegexUnion (Str2Reg "h") (Str2Reg "iii"))) (RegexConcat (RegexUnion (RegexPlus (Str2Reg "ccc")) (RegexUnion (Str2Reg "dd") (Str2Reg "ee"))) (RegexConcat (RegexPlus (RegexStar (Str2Reg "b"))) (RegexConcat (RegexPlus (RegexUnion (Str2Reg "999") (Str2Reg "aa"))) (RegexConcat (RegexStar (RegexStar (Str2Reg "888"))) (RegexConcat (RegexPlus (RegexPlus (Str2Reg "7"))) (RegexConcat (RegexUnion (RegexPlus (Str2Reg "55")) (RegexPlus (Str2Reg "6"))) (RegexConcat (RegexStar (RegexPlus (Str2Reg "44"))) (RegexConcat (RegexUnion (RegexStar (Str2Reg "22")) (RegexPlus (Str2Reg "3"))) (RegexConcat (RegexStar (RegexStar (Str2Reg "111"))) (RegexStar (RegexStar (Str2Reg "000")))))))))))))))))))))))))))))))))))))))))))))))))))))))))))))))))))))))))))))))))))))))))))))))))))))))))))))))))))))))))))))))))))))))))))))))))))))))))))))))))))))))))))))
(check-sat)